7 6
0 15 2 45 3 15 1 36 4 22 5 56  
1 57 0 25 2 26 5 9 4 11 3 43
1 23 0 28 5 8 2 35 3 9 4 26
1 56 3 32 4 12 5 35 2 19 0 32
5 41 0 15 2 23 1 62 4 13 3 26
4 32 5 19 3 28 1 45 0 29 2 43
3 12 2 5 5 6 4 23 1 15 0 21